0tutorial/attachment/eqsystem/6-data-options/eqsystem-data-options-wrongindex-A.dat
data;

set UnknownValues := 1 2 3 4 5;
set Equations := 1 2 3 4 5;

param Rhs :=
	1	-5
	2	-5
	3	1.5
	4	0
	5	-0.5
	;

param Coef:
		1	2	3	4	5 :=
	1	4	-2	3	.	.
	2	.	.	-1	-1	.
	3	.	1	1	.	.
	4	4	-7	.	2	5
	5	1	.	2	.	3
	;

# Original (correct) solution: 2, 3.5, -2, 7, 0.5
# Actual solution: 4.8, -20.6, -67.5, -10.3, 17

end;
